33D32945 STP File, STP Format Version 1.0

SECTION Comment
Name    "i080-244"
Creator "Cees Duin"
Remark  "Incidence graph"
END

SECTION Graph
Nodes 80
Edges 632
E 1 4 299
E 1 11 290
E 1 17 202
E 1 20 204
E 1 21 196
E 1 32 196
E 1 34 200
E 1 40 204
E 1 45 204
E 1 49 194
E 1 50 206
E 1 57 207
E 1 61 197
E 1 67 199
E 1 74 196
E 2 11 288
E 2 12 291
E 2 20 200
E 2 23 208
E 2 25 194
E 2 28 195
E 2 29 204
E 2 31 194
E 2 37 195
E 2 43 209
E 2 49 208
E 2 56 198
E 2 70 198
E 2 74 201
E 2 76 206
E 2 77 196
E 3 8 301
E 3 23 194
E 3 30 205
E 3 39 197
E 3 46 213
E 3 51 196
E 3 54 197
E 3 56 206
E 3 57 195
E 3 61 201
E 3 62 202
E 3 64 200
E 3 66 197
E 3 67 198
E 3 77 199
E 4 8 299
E 4 11 297
E 4 12 304
E 4 17 201
E 4 20 200
E 4 21 198
E 4 29 200
E 4 32 202
E 4 37 206
E 4 38 191
E 4 40 200
E 4 41 207
E 4 43 211
E 4 52 198
E 4 60 196
E 4 72 204
E 4 73 192
E 4 78 208
E 5 14 297
E 5 27 187
E 5 28 202
E 5 41 198
E 5 46 195
E 5 49 196
E 5 50 208
E 5 53 198
E 5 57 192
E 5 63 203
E 5 75 196
E 5 78 200
E 5 80 204
E 6 13 292
E 6 15 300
E 6 20 200
E 6 26 204
E 6 30 206
E 6 41 198
E 6 44 201
E 6 49 201
E 6 52 199
E 6 56 201
E 6 68 195
E 6 72 204
E 6 80 208
E 7 20 194
E 7 22 206
E 7 24 192
E 7 37 205
E 7 49 204
E 7 58 193
E 7 60 191
E 7 62 211
E 7 67 202
E 7 69 206
E 7 70 186
E 7 74 200
E 8 9 296
E 8 11 304
E 8 15 296
E 8 16 300
E 8 18 203
E 8 24 196
E 8 25 201
E 8 34 199
E 8 35 194
E 8 44 198
E 8 51 199
E 8 56 201
E 8 66 193
E 8 72 196
E 9 11 298
E 9 13 297
E 9 18 209
E 9 23 200
E 9 25 197
E 9 29 202
E 9 30 203
E 9 44 206
E 9 48 197
E 9 52 195
E 9 58 196
E 9 63 195
E 9 65 200
E 9 69 192
E 9 70 191
E 9 79 190
E 9 80 205
E 10 27 196
E 10 39 207
E 10 46 197
E 10 57 198
E 10 69 198
E 10 70 208
E 10 78 201
E 11 22 203
E 11 23 194
E 11 30 199
E 11 36 198
E 11 38 203
E 11 48 189
E 11 50 203
E 11 61 196
E 11 63 209
E 11 64 201
E 11 66 205
E 11 69 205
E 11 70 198
E 11 72 201
E 11 75 203
E 11 79 205
E 12 17 192
E 12 18 195
E 12 23 204
E 12 27 201
E 12 31 198
E 12 32 205
E 12 40 198
E 12 49 197
E 12 52 200
E 12 54 198
E 12 56 202
E 12 62 202
E 12 67 202
E 12 71 205
E 12 75 197
E 12 76 202
E 12 79 195
E 13 18 200
E 13 20 198
E 13 24 198
E 13 27 198
E 13 29 200
E 13 43 201
E 13 48 202
E 13 55 198
E 13 56 191
E 13 65 196
E 13 66 196
E 13 69 192
E 13 70 207
E 13 75 195
E 13 78 198
E 14 22 194
E 14 26 200
E 14 38 197
E 14 50 207
E 14 51 206
E 14 53 195
E 14 63 195
E 14 70 208
E 14 77 199
E 15 17 197
E 15 22 201
E 15 23 204
E 15 25 203
E 15 34 201
E 15 42 206
E 15 50 204
E 15 54 199
E 15 55 208
E 15 60 202
E 15 61 202
E 15 62 199
E 15 65 204
E 15 68 203
E 15 75 202
E 15 77 205
E 16 21 205
E 16 29 193
E 16 31 195
E 16 37 191
E 16 38 195
E 16 39 195
E 16 45 209
E 16 46 209
E 16 48 194
E 16 50 202
E 16 53 202
E 16 56 199
E 16 60 207
E 16 63 198
E 16 67 199
E 16 73 204
E 16 74 202
E 17 19 82
E 17 20 100
E 17 26 96
E 17 30 99
E 17 39 99
E 17 41 92
E 17 42 104
E 17 48 100
E 17 61 94
E 17 64 94
E 17 69 101
E 17 70 99
E 17 73 97
E 18 26 93
E 18 36 97
E 18 39 97
E 18 66 99
E 18 68 91
E 18 73 103
E 18 76 97
E 18 78 94
E 19 20 105
E 19 21 91
E 19 25 101
E 19 38 100
E 19 42 103
E 19 50 99
E 19 52 98
E 19 58 98
E 19 62 99
E 19 75 102
E 19 76 103
E 19 77 106
E 19 78 96
E 20 27 95
E 20 35 101
E 20 38 104
E 20 40 101
E 20 54 100
E 20 57 109
E 20 70 99
E 20 71 105
E 20 72 97
E 20 77 98
E 20 80 104
E 21 26 97
E 21 28 103
E 21 29 93
E 21 34 101
E 21 41 101
E 21 42 93
E 21 43 103
E 21 51 92
E 21 54 98
E 21 56 95
E 21 57 92
E 21 70 102
E 21 79 102
E 22 31 100
E 22 33 105
E 22 39 93
E 22 45 102
E 22 54 101
E 22 55 91
E 22 56 97
E 22 64 105
E 22 73 99
E 22 74 92
E 23 29 101
E 23 33 94
E 23 35 102
E 23 39 99
E 23 41 99
E 23 42 98
E 23 44 95
E 23 45 110
E 23 53 100
E 23 55 95
E 23 58 99
E 23 60 93
E 23 61 105
E 23 64 97
E 23 69 101
E 23 77 104
E 23 79 101
E 24 25 98
E 24 27 109
E 24 35 102
E 24 44 94
E 24 50 96
E 24 51 103
E 24 54 93
E 24 62 96
E 24 64 108
E 24 72 102
E 24 73 102
E 24 77 94
E 25 37 102
E 25 38 100
E 25 39 98
E 25 40 98
E 25 42 94
E 25 43 91
E 25 47 104
E 25 62 94
E 25 68 117
E 26 29 101
E 26 38 95
E 26 39 104
E 26 51 102
E 26 60 102
E 26 72 96
E 26 74 107
E 26 77 100
E 26 78 101
E 27 37 98
E 27 39 98
E 27 42 97
E 27 53 96
E 27 66 96
E 27 68 93
E 27 71 101
E 27 72 102
E 27 74 101
E 27 80 95
E 28 34 108
E 28 46 97
E 28 48 99
E 28 52 97
E 28 59 104
E 28 70 95
E 28 72 99
E 28 74 109
E 28 76 112
E 28 77 104
E 28 79 92
E 29 43 108
E 29 46 104
E 29 49 96
E 29 54 96
E 29 58 99
E 29 62 109
E 29 70 107
E 29 76 99
E 29 80 99
E 30 35 96
E 30 61 105
E 30 62 98
E 30 63 96
E 30 64 109
E 30 70 90
E 30 72 102
E 30 75 102
E 30 76 103
E 31 32 97
E 31 33 94
E 31 34 101
E 31 52 99
E 31 54 94
E 31 56 96
E 31 58 94
E 31 59 96
E 31 60 99
E 31 63 103
E 31 77 98
E 31 80 101
E 32 37 92
E 32 47 97
E 32 59 99
E 32 65 100
E 32 75 108
E 32 76 101
E 32 78 106
E 33 37 95
E 33 44 108
E 33 45 102
E 33 47 98
E 33 49 99
E 33 58 101
E 33 62 99
E 33 65 113
E 33 71 98
E 33 75 97
E 33 76 99
E 33 77 102
E 33 79 102
E 34 38 104
E 34 39 105
E 34 43 109
E 34 50 96
E 34 52 98
E 34 57 97
E 34 63 100
E 34 66 101
E 34 71 97
E 34 78 92
E 34 79 100
E 35 40 101
E 35 47 106
E 35 56 107
E 35 57 103
E 35 59 95
E 36 45 88
E 36 58 108
E 36 61 94
E 36 71 102
E 36 80 100
E 37 39 102
E 37 43 108
E 37 45 88
E 37 47 99
E 37 51 99
E 37 55 103
E 37 61 102
E 37 62 101
E 37 68 98
E 37 71 102
E 37 79 101
E 38 39 105
E 38 40 94
E 38 54 98
E 38 70 102
E 38 78 96
E 39 46 101
E 39 64 106
E 39 71 107
E 39 75 101
E 39 76 94
E 39 77 96
E 39 79 92
E 40 51 96
E 40 61 93
E 40 69 89
E 40 73 96
E 41 44 104
E 41 50 92
E 41 51 105
E 41 58 103
E 41 59 87
E 41 64 106
E 41 67 103
E 42 43 102
E 42 49 99
E 42 52 103
E 42 53 99
E 42 64 101
E 42 70 100
E 42 71 96
E 42 80 103
E 43 44 94
E 43 47 94
E 43 48 100
E 43 54 101
E 43 56 97
E 43 57 98
E 43 59 95
E 43 63 101
E 43 68 108
E 43 69 94
E 43 73 102
E 43 74 94
E 43 80 97
E 44 45 100
E 44 46 94
E 44 50 103
E 44 59 98
E 44 64 99
E 44 67 97
E 44 73 100
E 44 75 90
E 45 46 94
E 45 48 99
E 45 65 101
E 45 67 99
E 45 70 93
E 45 73 100
E 45 78 100
E 46 52 102
E 46 60 91
E 46 62 96
E 46 65 104
E 46 68 105
E 46 72 101
E 46 77 102
E 47 58 87
E 47 59 103
E 47 63 104
E 47 76 101
E 48 56 99
E 48 59 104
E 48 61 107
E 48 64 98
E 48 66 101
E 48 75 94
E 49 51 98
E 49 55 107
E 49 60 96
E 49 65 96
E 49 66 99
E 49 70 109
E 49 80 99
E 50 55 104
E 50 59 99
E 50 62 100
E 50 63 102
E 50 67 95
E 50 72 98
E 50 73 105
E 50 80 102
E 51 60 103
E 51 62 86
E 51 68 95
E 51 76 101
E 52 54 99
E 52 56 106
E 52 60 102
E 52 62 102
E 52 68 94
E 52 69 103
E 52 75 102
E 53 54 108
E 53 58 92
E 53 68 99
E 53 75 100
E 53 77 95
E 54 58 98
E 54 59 97
E 54 71 94
E 54 73 101
E 55 56 101
E 55 60 107
E 55 61 103
E 55 65 106
E 55 66 98
E 55 72 96
E 55 73 91
E 55 77 99
E 56 58 88
E 56 64 101
E 57 60 96
E 57 65 98
E 57 67 101
E 57 68 106
E 57 73 103
E 57 74 98
E 57 80 115
E 58 60 98
E 58 63 93
E 58 64 98
E 58 66 113
E 58 77 100
E 58 78 91
E 58 80 98
E 59 62 95
E 60 68 105
E 60 69 92
E 60 72 95
E 60 74 97
E 61 63 97
E 61 65 109
E 61 73 107
E 61 74 96
E 61 78 104
E 61 80 106
E 62 79 95
E 63 65 99
E 63 70 98
E 63 75 105
E 63 77 98
E 64 71 100
E 65 66 102
E 65 67 100
E 65 69 96
E 65 71 100
E 65 73 109
E 66 67 96
E 66 71 92
E 66 74 101
E 67 76 107
E 68 70 87
E 68 76 98
E 69 70 101
E 69 71 104
E 69 73 92
E 69 76 98
E 69 78 101
E 70 73 98
E 70 75 100
E 72 78 102
E 72 79 96
E 73 74 90
E 73 80 104
E 74 75 106
E 74 76 106
E 75 76 105
E 75 77 95
E 75 80 93
E 76 77 102
E 76 79 99
E 76 80 96
E 77 78 92
E 79 80 105
END

SECTION Terminals
Terminals 16
T 1
T 2
T 3
T 4
T 5
T 6
T 7
T 8
T 9
T 10
T 11
T 12
T 13
T 14
T 15
T 16
END

EOF
